24° run output:
{
    "Function": "euclidA300.tsp",
    "Problem dimension": [
        204,
        34,
        188,
        185,
        177,
        233,
        251,
        39,
        196,
        226,
        151,
        52,
        85,
        2,
        82,
        159,
        268,
        239,
        66,
        249,
        128,
        120,
        32,
        266,
        17,
        186,
        200,
        270,
        134,
        100,
        232,
        40,
        230,
        11,
        271,
        261,
        283,
        290,
        44,
        64,
        264,
        205,
        180,
        1,
        220,
        221,
        5,
        156,
        31,
        15,
        257,
        51,
        71,
        291,
        191,
        137,
        175,
        47,
        3,
        275,
        208,
        101,
        110,
        197,
        184,
        192,
        241,
        46,
        27,
        231,
        195,
        142,
        269,
        136,
        144,
        256,
        130,
        103,
        118,
        292,
        126,
        125,
        206,
        132,
        107,
        194,
        229,
        294,
        99,
        273,
        21,
        133,
        250,
        203,
        225,
        297,
        122,
        45,
        91,
        104,
        65,
        49,
        113,
        295,
        105,
        83,
        178,
        207,
        237,
        293,
        117,
        187,
        148,
        43,
        280,
        124,
        7,
        55,
        174,
        35,
        216,
        253,
        154,
        167,
        131,
        19,
        22,
        189,
        13,
        109,
        299,
        14,
        164,
        244,
        96,
        33,
        59,
        262,
        265,
        284,
        240,
        139,
        123,
        69,
        37,
        42,
        87,
        95,
        158,
        214,
        56,
        63,
        162,
        106,
        215,
        9,
        4,
        168,
        179,
        272,
        242,
        12,
        279,
        115,
        36,
        75,
        58,
        10,
        90,
        92,
        72,
        30,
        141,
        260,
        60,
        160,
        190,
        170,
        127,
        296,
        285,
        228,
        252,
        282,
        112,
        73,
        93,
        181,
        153,
        155,
        111,
        129,
        245,
        276,
        18,
        193,
        119,
        48,
        54,
        157,
        57,
        77,
        161,
        248,
        79,
        213,
        20,
        289,
        202,
        183,
        26,
        150,
        88,
        255,
        140,
        78,
        274,
        199,
        227,
        201,
        238,
        287,
        53,
        143,
        97,
        67,
        25,
        182,
        38,
        50,
        165,
        138,
        61,
        163,
        198,
        81,
        102,
        108,
        149,
        288,
        74,
        16,
        172,
        259,
        68,
        147,
        247,
        86,
        278,
        23,
        217,
        0,
        211,
        212,
        146,
        234,
        6,
        219,
        8,
        121,
        28,
        80,
        246,
        236,
        135,
        70,
        222,
        114,
        223,
        209,
        258,
        166,
        41,
        24,
        152,
        84,
        286,
        169,
        171,
        29,
        89,
        263,
        94,
        243,
        210,
        281,
        76,
        62,
        224,
        173,
        116,
        145,
        267,
        176,
        277,
        298,
        98,
        235,
        254,
        218
    ],
    "Global Optimum": 0,
    "Algorithm": "Genetic algorithm",
    "Parameters": {
        "population": 30,
        "offspring": 30,
        "mutation probability": 0.0033333333333333335,
        "crossover probability": 0.9
    },
    "Fitness": 271858,
    "Solution": [
        204,
        34,
        188,
        185,
        177,
        233,
        251,
        39,
        196,
        226,
        151,
        52,
        85,
        2,
        82,
        159,
        268,
        239,
        66,
        249,
        128,
        120,
        32,
        266,
        17,
        186,
        200,
        270,
        134,
        100,
        232,
        40,
        230,
        11,
        271,
        261,
        283,
        290,
        44,
        64,
        264,
        205,
        180,
        1,
        220,
        221,
        5,
        156,
        31,
        15,
        257,
        51,
        71,
        291,
        191,
        137,
        175,
        47,
        3,
        275,
        208,
        101,
        110,
        197,
        184,
        192,
        241,
        46,
        27,
        231,
        195,
        142,
        269,
        136,
        144,
        256,
        130,
        103,
        118,
        292,
        126,
        125,
        206,
        132,
        107,
        194,
        229,
        294,
        99,
        273,
        21,
        133,
        250,
        203,
        225,
        297,
        122,
        45,
        91,
        104,
        65,
        49,
        113,
        295,
        105,
        83,
        178,
        207,
        237,
        293,
        117,
        187,
        148,
        43,
        280,
        124,
        7,
        55,
        174,
        35,
        216,
        253,
        154,
        167,
        131,
        19,
        22,
        189,
        13,
        109,
        299,
        14,
        164,
        244,
        96,
        33,
        59,
        262,
        265,
        284,
        240,
        139,
        123,
        69,
        37,
        42,
        87,
        95,
        158,
        214,
        56,
        63,
        162,
        106,
        215,
        9,
        4,
        168,
        179,
        272,
        242,
        12,
        279,
        115,
        36,
        75,
        58,
        10,
        90,
        92,
        72,
        30,
        141,
        260,
        60,
        160,
        190,
        170,
        127,
        296,
        285,
        228,
        252,
        282,
        112,
        73,
        93,
        181,
        153,
        155,
        111,
        129,
        245,
        276,
        18,
        193,
        119,
        48,
        54,
        157,
        57,
        77,
        161,
        248,
        79,
        213,
        20,
        289,
        202,
        183,
        26,
        150,
        88,
        255,
        140,
        78,
        274,
        199,
        227,
        201,
        238,
        287,
        53,
        143,
        97,
        67,
        25,
        182,
        38,
        50,
        165,
        138,
        61,
        163,
        198,
        81,
        102,
        108,
        149,
        288,
        74,
        16,
        172,
        259,
        68,
        147,
        247,
        86,
        278,
        23,
        217,
        0,
        211,
        212,
        146,
        234,
        6,
        219,
        8,
        121,
        28,
        80,
        246,
        236,
        135,
        70,
        222,
        114,
        223,
        209,
        258,
        166,
        41,
        24,
        152,
        84,
        286,
        169,
        171,
        29,
        89,
        263,
        94,
        243,
        210,
        281,
        76,
        62,
        224,
        173,
        116,
        145,
        267,
        176,
        277,
        298,
        98,
        235,
        254,
        218
    ],
    "Nb of functions evaluations": 400020,
    "Computational time in seconds": 700.2423267364502,
    "Stopping criterion in evaluations": 400000
}